************************************************************************
file with basedata            : n/a
initial value random generator: n/a
************************************************************************
projects                      :  1
jobs (incl. supersource/sink ):  122
horizon                       :  652
RESOURCES
  - renewable                 :  4   R
  - nonrenewable              :  0   N
  - doubly constrained        :  0   D
************************************************************************
PROJECT INFORMATION:
pronr.  #jobs rel.date duedate tardcost  MPM-Time
    1    120      0       95       91       95
************************************************************************
PRECEDENCE RELATIONS:
jobnr.    #modes  #successors   successors
   1        1          3           2   3   4
   2        1          3           5   8  63
   3        1          3          12  19  28
   4        1          3           6   9  22
   5        1          3           7  29  34
   6        1          3          10  13  99
   7        1          2          23  86
   8        1          3          11  17  98
   9        1          1         109
  10        1          3          31  52 111
  11        1          3          36  38 101
  12        1          3          14  18  33
  13        1          3          15  27  59
  14        1          1          66
  15        1          3          16  26  70
  16        1          3          49  58  79
  17        1          3          60  83  95
  18        1          3          21  24  44
  19        1          2          20  24
  20        1          2          21  81
  21        1          2          25  41
  22        1          1          27
  23        1          2          46  74
  24        1          3          32  37  39
  25        1          1          45
  26        1          1          56
  27        1          2          44  54
  28        1          2          64  77
  29        1          3          30  40  47
  30        1          3          51  59  91
  31        1          3          43  50 100
  32        1          3          62  71  87
  33        1          1          35
  34        1          2          77  82
  35        1          1          58
  36        1          1          42
  37        1          2          61  89
  38        1          1          94
  39        1          3          82  84 105
  40        1          3          50  57  89
  41        1          1          69
  42        1          3          66  80 100
  43        1          3          48  55  83
  44        1          1          93
  45        1          1          53
  46        1          1          66
  47        1          1          73
  48        1          2          71 105
  49        1          1          75
  50        1          1         103
  51        1          2          65  70
  52        1          1         112
  53        1          3          78 113 116
  54        1          1         112
  55        1          3          67  82 118
  56        1          2          73  87
  57        1          3          69  78 120
  58        1          1          63
  59        1          2          94 117
  60        1          1          91
  61        1          1          81
  62        1          1          74
  63        1          2          74  76
  64        1          2          79  97
  65        1          2          71  95
  66        1          1          68
  67        1          1          92
  68        1          1          72
  69        1          2          84  88
  70        1          2          94 101
  71        1          1          86
  72        1          3          73  85 107
  73        1          2          88 108
  74        1          3          77  90 106
  75        1          2          84 102
  76        1          1          96
  77        1          1         115
  78        1          1          88
  79        1          1          90
  80        1          2          99 121
  81        1          3          83  90 112
  82        1          2          91  97
  83        1          2         101 104
  84        1          2          92  97
  85        1          3          89  99 102
  86        1          1         104
  87        1          2          96 102
  88        1          1         121
  89        1          2          92  93
  90        1          2          96  98
  91        1          1         107
  92        1          2         109 110
  93        1          2          95 121
  94        1          2         100 104
  95        1          1         105
  96        1          1         108
  97        1          1         107
  98        1          2         111 115
  99        1          1         111
 100        1          2         103 114
 101        1          2         103 106
 102        1          2         118 120
 103        1          2         108 109
 104        1          1         114
 105        1          2         106 110
 106        1          1         114
 107        1          1         110
 108        1          1         120
 109        1          1         115
 110        1          1         117
 111        1          1         113
 112        1          2         113 116
 113        1          1         117
 114        1          1         118
 115        1          1         116
 116        1          1         119
 117        1          1         119
 118        1          1         119
 119        1          1         122
 120        1          1         122
 121        1          1         122
 122        1          0        
************************************************************************
REQUESTS/DURATIONS:
jobnr. mode duration  R 1  R 2  R 3  R 4
------------------------------------------------------------------------
  1      1     0    
  2      1     1       6
                       7
                       4
                       5
  3      1     6       5   5   5   5   5   5
                       4   4   4   4   4   4
                       8   8   8   8   8   8
                       5   5   5   5   5   5
  4      1     8       8   8   8   8   8   8   8   8
                       8   8   8   8   8   8   8   8
                       5   5   5   5   5   5   5   5
                       5   5   5   5   5   5   5   5
  5      1     7       6   6   6   6   6   6   6
                       4   4   4   4   4   4   4
                      10  10  10  10  10  10  10
                       5   5   5   5   5   5   5
  6      1     1       5
                       8
                       5
                       6
  7      1     2       3   3
                       8   8
                      10  10
                       9   9
  8      1     7       4   4   4   4   4   4   4
                       4   4   4   4   4   4   4
                       5   5   5   5   5   5   5
                       4   4   4   4   4   4   4
  9      1     3       4   8   8
                       1   1   1
                       2   3   3
                       1   1   1
 10      1     2       8   8
                       8   8
                       2   2
                       2   2
 11      1     9       1   1   1   1   1   1   1   1   1
                      10  10  10  10  10  10  10  10  10
                       8   8   8   8   8   8   8   8   8
                       9   9   9   9   9   9   9   9   9
 12      1     9       7   7   7   7   7   7   7   7   7
                       9   9   9   9   9   9   9   9   9
                       6   6   6   6   6   6   6   6   6
                      10  10  10  10  10  10  10  10  10
 13      1     5       5   5   5   5   5
                       6   6   6   6   6
                      10  10  10  10  10
                       3   3   3   3   3
 14      1     6       3   3   3   3   3   3
                      10  10  10  10  10  10
                       5   5   5   5   5   5
                       8   8   8   8   8   8
 15      1     8       9   9   9   9   9   9   9   9
                       4   4   4   4   4   4   4   4
                       2   2   2   2   2   2   2   2
                       2   2   2   2   2   2   2   2
 16      1     6       3   3   3   3   3   3
                      10  10  10  10  10  10
                       6   6   6   6   6   6
                       7   7   7   7   7   7
 17      1    10       1   1   1   1   1   1   1   1   1   1
                       9   9   9   9   9   9   9   9   9   9
                       9   9   9   9   9   9   9   9   9   9
                       8   8   8   8   8   8   8   8   8   8
 18      1     8       4   4   4   4   4   4   4   2
                       8   8   8   8   8   8   8   4
                      10  10  10  10  10  10  10   5
                       7   7   7   7   7   7   7   4
 19      1     2       3   3
                       7   7
                       7   7
                       4   4
 20      1     6       4   4   4   4   4   4
                       9   9   9   9   9   9
                       1   1   1   1   1   1
                       6   6   6   6   6   6
 21      1     9       4   4   4   4   4   4   4   4   4
                       2   2   2   2   2   2   2   2   2
                       5   5   5   5   5   5   5   5   5
                       5   5   5   5   5   5   5   5   5
 22      1     4       2   2   2   2
                       3   3   3   3
                       5   5   5   5
                       2   2   2   2
 23      1     2       1   2
                       5   9
                       3   6
                       3   5
 24      1     1       9
                       5
                       5
                       5
 25      1     9       6   6   6   3   6   6   6   6   6
                       6   6   6   3   6   6   6   6   6
                       9   9   9   5   9   9   9   9   9
                       2   2   2   1   2   2   2   2   2
 26      1     1       4
                      10
                       8
                       5
 27      1     8       9   9   9   9   9   9   9   9
                       4   4   4   4   4   4   4   4
                       2   2   2   2   2   2   2   2
                       2   2   2   2   2   2   2   2
 28      1     2       2   2
                       1   1
                       3   3
                       9   9
 29      1     4       9   9   9   9
                       9   9   9   9
                       8   8   8   8
                      10  10  10  10
 30      1     3       8   8   8
                       4   4   4
                       3   3   3
                       9   9   9
 31      1     5       1   1   1   1   1
                       1   1   1   1   1
                       2   2   2   2   2
                      10  10  10  10  10
 32      1     7       5   5   5   5   5   5   3
                       8   8   8   8   8   8   4
                       1   1   1   1   1   1   1
                       2   2   2   2   2   2   1
 33      1     4       9   9   9   9
                       4   4   4   4
                       7   7   7   7
                       3   3   3   3
 34      1     7       6   6   6   6   6   6   3
                       9   9   9   9   9   9   5
                       1   1   1   1   1   1   1
                       5   5   5   5   5   5   3
 35      1     4       6   6   6   6
                       2   2   2   2
                       9   9   9   9
                       8   8   8   8
 36      1     7       3   3   3   3   3   3   2
                       4   4   4   4   4   4   2
                       9   9   9   9   9   9   5
                       3   3   3   3   3   3   2
 37      1     3       7   7   7
                       2   2   2
                       6   6   6
                       6   6   6
 38      1     6       9   9   9   9   9   9
                       2   2   2   2   2   2
                       5   5   5   5   5   5
                       6   6   6   6   6   6
 39      1     4       1   1   1   1
                      10  10  10  10
                       6   6   6   6
                       3   3   3   3
 40      1     8       3   3   3   3   3   3   3   3
                       9   9   9   9   9   9   9   9
                       7   7   7   7   7   7   7   7
                       1   1   1   1   1   1   1   1
 41      1     8       1   1   1   1   1   1   1   1
                       7   7   7   7   4   7   7   7
                       2   2   2   2   1   2   2   2
                       6   6   6   6   3   6   6   6
 42      1     6       5   5   5   5   5   5
                       9   9   9   9   9   9
                      10  10  10  10  10  10
                       5   5   5   5   5   5
 43      1     1       9
                       1
                       2
                       3
 44      1     2       6   6
                       4   4
                       8   8
                       6   6
 45      1     3       6   6   6
                       5   5   5
                       1   1   1
                       6   6   6
 46      1     1       4
                       4
                       6
                       1
 47      1     7       5   9   9   9   9   9   9
                       4   8   8   8   8   8   8
                       5   9   9   9   9   9   9
                       3   6   6   6   6   6   6
 48      1    10       4   4   4   4   4   4   4   4   4   4
                       3   3   3   3   3   3   3   3   3   3
                      10  10  10  10  10  10  10  10  10  10
                       4   4   4   4   4   4   4   4   4   4
 49      1     3       1   1   1
                       7   7   7
                       3   3   3
                       5   5   5
 50      1     6       9   9   9   9   9   9
                       1   1   1   1   1   1
                       4   4   4   4   4   4
                       3   3   3   3   3   3
 51      1     8      10  10  10  10  10  10  10  10
                       1   1   1   1   1   1   1   1
                      10  10  10  10  10  10  10  10
                       8   8   8   8   8   8   8   8
 52      1     9       8   8   8   8   8   8   8   8   8
                       6   6   6   6   6   6   6   6   6
                       2   2   2   2   2   2   2   2   2
                      10  10  10  10  10  10  10  10  10
 53      1    10       5   5   5   5   5   5   5   5   5   5
                       8   8   8   8   8   8   8   8   8   8
                       7   7   7   7   7   7   7   7   7   7
                       5   5   5   5   5   5   5   5   5   5
 54      1     4       3   3   3   3
                       4   4   4   4
                       5   5   5   5
                       6   6   6   6
 55      1     5       7   7   7   7   7
                       1   1   1   1   1
                       6   6   6   6   6
                       5   5   5   5   5
 56      1     8       9   9   9   9   9   9   9   9
                       4   4   4   4   4   4   4   4
                       2   2   2   2   2   2   2   2
                       7   7   7   7   7   7   7   7
 57      1     6       2   2   2   2   2   2
                       3   3   3   3   3   3
                       2   2   2   2   2   2
                       6   6   6   6   6   6
 58      1     2       9   9
                       1   1
                       3   3
                       7   7
 59      1     9       8   8   8   8   8   4   8   8   8
                       1   1   1   1   1   1   1   1   1
                       5   5   5   5   5   3   5   5   5
                       9   9   9   9   9   5   9   9   9
 60      1     2       1   1
                       9   9
                       6   6
                       4   4
 61      1     4       4   4   4   4
                       2   2   2   2
                       7   7   7   7
                       2   2   2   2
 62      1     9       9   9   9   9   9   9   9   9   5
                       2   2   2   2   2   2   2   2   1
                       6   6   6   6   6   6   6   6   3
                       6   6   6   6   6   6   6   6   3
 63      1     6       8   8   8   8   8   8
                       1   1   1   1   1   1
                       7   7   7   7   7   7
                      10  10  10  10  10  10
 64      1     7       1   1   1   1   1   1   1
                       3   3   3   3   3   3   3
                       1   1   1   1   1   1   1
                       3   3   3   3   3   3   3
 65      1     6       8   8   8   8   8   8
                       6   6   6   6   6   6
                       8   8   8   8   8   8
                       5   5   5   5   5   5
 66      1     7       1   1   1   1   1   1   1
                       6   6   6   6   6   6   6
                       2   2   2   2   2   2   2
                       6   6   6   6   6   6   6
 67      1     4       7   7   7   7
                       6   6   6   6
                       5   5   5   5
                       5   5   5   5
 68      1     7       8   8   8   8   8   8   8
                       4   4   4   4   4   4   4
                      10  10  10  10  10  10  10
                       8   8   8   8   8   8   8
 69      1     8       3   3   3   3   3   2   3   3
                       3   3   3   3   3   2   3   3
                       6   6   6   6   6   3   6   6
                       2   2   2   2   2   1   2   2
 70      1     6       9   9   9   9   9   9
                       9   9   9   9   9   9
                       1   1   1   1   1   1
                       1   1   1   1   1   1
 71      1     8       6   6   6   6   6   6   6   6
                       2   2   2   2   2   2   2   2
                       6   6   6   6   6   6   6   6
                       7   7   7   7   7   7   7   7
 72      1     2       9   9
                       8   8
                       4   4
                       7   7
 73      1     3      10  10  10
                       6   6   6
                       4   4   4
                       4   4   4
 74      1     9       5   5   5   3   5   5   5   5   5
                       9   9   9   5   9   9   9   9   9
                       6   6   6   3   6   6   6   6   6
                       8   8   8   4   8   8   8   8   8
 75      1     1       2
                       7
                      10
                       2
 76      1    10       8   8   8   8   8   8   8   8   8   8
                       3   3   3   3   3   3   3   3   3   3
                       6   6   6   6   6   6   6   6   6   6
                       5   5   5   5   5   5   5   5   5   5
 77      1     5       1   1   1   1   1
                       6   6   6   6   6
                       8   8   8   8   8
                       5   5   5   5   5
 78      1     5       4   4   4   4   4
                       3   3   3   3   3
                       1   1   1   1   1
                       1   1   1   1   1
 79      1     9       5   5   5   5   5   5   5   5   5
                       6   6   6   6   6   6   6   6   6
                       5   5   5   5   5   5   5   5   5
                       1   1   1   1   1   1   1   1   1
 80      1     6       4   4   4   4   4   4
                       5   5   5   5   5   5
                      10  10  10  10  10  10
                       1   1   1   1   1   1
 81      1     7       2   2   2   2   2   2   1
                       2   2   2   2   2   2   1
                       2   2   2   2   2   2   1
                       6   6   6   6   6   6   3
 82      1     4       8   8   8   4
                       5   5   5   3
                       4   4   4   2
                       3   3   3   2
 83      1     6       1   1   1   1   1   1
                       2   4   4   4   4   4
                       4   8   8   8   8   8
                       3   6   6   6   6   6
 84      1     8       2   4   4   4   4   4   4   4
                       4   8   8   8   8   8   8   8
                       5   9   9   9   9   9   9   9
                       4   7   7   7   7   7   7   7
 85      1     1      10
                       8
                       5
                       7
 86      1     2      10  10
                      10  10
                       8   8
                       7   7
 87      1     9      10  10  10  10  10  10  10   5   5
                       5   5   5   5   5   5   5   3   3
                       7   7   7   7   7   7   7   4   4
                       6   6   6   6   6   6   6   3   3
 88      1     7       2   1   2   2   2   2   2
                       4   2   4   4   4   4   4
                       5   3   5   5   5   5   5
                       5   3   5   5   5   5   5
 89      1     5       5   5   5   5   5
                       7   7   7   7   7
                       7   7   7   7   7
                       1   1   1   1   1
 90      1    10       1   1   1   1   1   1   1   1   1   1
                       4   4   4   4   4   4   4   4   4   4
                       2   2   2   2   2   2   2   2   2   2
                       9   9   9   9   9   9   9   9   9   9
 91      1     2       3   3
                       9   9
                       9   9
                       2   2
 92      1     5       8   4   8   8   8
                       3   2   3   3   3
                       2   1   2   2   2
                       4   2   4   4   4
 93      1     1       9
                       1
                       8
                       6
 94      1     5       4   4   4   4   4
                       1   1   1   1   1
                       9   9   9   9   9
                       3   3   3   3   3
 95      1     3       6   6   6
                       1   1   1
                       5   5   5
                       3   3   3
 96      1     8       8   8   8   8   8   8   8   8
                       5   5   5   5   5   5   5   5
                       1   1   1   1   1   1   1   1
                       4   4   4   4   4   4   4   4
 97      1    10      10  10  10  10  10  10  10  10  10  10
                       2   2   2   2   2   2   2   2   2   2
                       7   7   7   7   7   7   7   7   7   7
                       9   9   9   9   9   9   9   9   9   9
 98      1     3       4   4   4
                       2   2   2
                       6   6   6
                       5   5   5
 99      1     1       1
                       6
                       6
                       7
100      1     6       5   5   5   5   5   5
                      10  10  10  10  10  10
                       9   9   9   9   9   9
                       7   7   7   7   7   7
101      1     1       9
                       5
                       3
                       4
102      1    10       3   3   3   3   3   3   3   3   3   3
                       8   8   8   8   8   8   8   8   8   8
                       4   4   4   4   4   4   4   4   4   4
                       3   3   3   3   3   3   3   3   3   3
103      1     2       1   1
                       5   5
                       6   6
                      10  10
104      1     6       3   3   3   3   3   3
                       4   4   4   4   4   4
                       9   9   9   9   9   9
                       1   1   1   1   1   1
105      1    10       7   7   7   7   7   7   7   7   7   7
                       5   5   5   5   5   5   5   5   5   5
                      10  10  10  10  10  10  10  10  10  10
                       6   6   6   6   6   6   6   6   6   6
106      1     4       6   6   6   6
                       6   6   6   6
                       1   1   1   1
                       5   5   5   5
107      1     6       2   2   2   2   2   2
                       9   9   9   9   9   9
                       9   9   9   9   9   9
                       6   6   6   6   6   6
108      1     3       5   5   5
                       2   2   2
                       7   7   7
                       2   2   2
109      1     4       8   8   8   8
                       3   3   3   3
                       8   8   8   8
                       8   8   8   8
110      1     9       3   3   3   3   3   3   3   3   3
                       8   8   8   8   8   8   8   8   8
                      10  10  10  10  10  10  10  10  10
                       4   4   4   4   4   4   4   4   4
111      1     6       4   4   4   2   4   4
                       1   1   1   1   1   1
                       8   8   8   4   8   8
                       8   8   8   4   8   8
112      1     6       7   7   7   7   7   7
                       1   1   1   1   1   1
                       6   6   6   6   6   6
                       8   8   8   8   8   8
113      1     5       9   9   9   5   9
                       6   6   6   3   6
                       6   6   6   3   6
                       6   6   6   3   6
114      1     6       8   8   8   8   8   8
                      10  10  10  10  10  10
                       6   6   6   6   6   6
                       3   3   3   3   3   3
115      1     8       9   9   9   9   9   9   9   9
                      10  10  10  10  10  10  10  10
                       8   8   8   8   8   8   8   8
                       6   6   6   6   6   6   6   6
116      1     2       6   3
                      10   5
                       3   2
                       6   3
117      1     4       3   3   3   3
                       2   2   2   2
                       9   9   9   9
                       1   1   1   1
118      1     4       1   1   1   1
                       3   3   3   3
                       7   7   7   7
                       3   3   3   3
119      1    10       9   9   9   9   9   5   9   9   9   9
                       8   8   8   8   8   4   8   8   8   8
                       6   6   6   6   6   3   6   6   6   6
                       8   8   8   8   8   4   8   8   8   8
120      1     4       9   9   9   9
                       8   8   8   8
                       4   4   4   4
                       7   7   7   7
121      1     3       5   5   5
                       2   2   2
                       5   5   5
                       1   1   1
122      1     0    
************************************************************************
RESOURCEAVAILABILITIES:
  R 1  R 2  R 3  R 4

  10  19  19  19  19  19  19  19  19  19  19  19  19  19  19  19  19  10  19  19  19  19  19  19  19  19  19  19  19  19  19  19  19  19  19  19  19  19  19  19  19  19  19  19  19  19  19  19  19  19  19  19  19  19  19  19  19  19  19  19  19  19  19  19  19  19  19  19  19  19  19  19  19  19  10  19  19  19  19  19  19  19  19  19  19  19  10  19  19  19  19  19  19  19  19  19  19  19  19  19  19  19  19  19  19  19  19  19  19  19  19  19  19  19  19  19  19  19  19  19  19  19  19  19  19  19  19  19  19  10  19  19  19  10  19  19  19  19  19  19  19  19  19  19  19  19  19  19  10  19  19  19  19  10  19  19  19  19  19  19  19  19  19  19  19  19  19  19  19  19  19  19  19  19  19  19  19  19  19  19  19  19  19  19  19  10  19  19  19  19  19  19  19  10  19  19  19  10  19  19  19  19  19  19  19  19  10  19  19  19  19  19  19  19  19  19  19  19  19  19  19  19  19  19  19  19  19  19  19  19  19  19  19  19  19  19  19  19  19  19  19  19  19  19  19  19  19  19  19  19  19  19  19  19  19  19  19  10  19  19  19  19  19  19  19  19  19  19  19  19  19  19  19  19  19  19  19  10  19  19  19  19  19  19  19  19  19  19  19  19  19  19  19  19  19  19  19  19  19  19  19  19  19  19  19  19  19  19  19  19  19  19  19  19  19  19  19  19  19  19  19  19  19  19  19  19  19  19  19  19  19  19  19  19  19  19  19  19  19  19  19  19  19  19  19  19  19  19  10  10  19  19  19  19  19  19  19  19  10  19  19  19  19  19  19  19  19  19  10  19  19  19  19  19  19  10  19  19  19  10  19  19  19  19  19  19  19  19  10  19  19  19  19  19  19  19  19  19  19  19  19  19  19  19  19  19  19  19  19  19  19  19  19  19  10  19  19  19  19  19  19  19  19  19  19  10  19  19  19  19  19  19  19  19  19  19  19  19  19  19  19  19  19  19  19  19  10  19  19  19  19  19  19  10  19  19  19  19  19  19  19  19  19  19  19  19  19  19  19  19  19  19  19  19  19  10  19  19  19  19  19  19  19  19  19  19  19  19  10  19  19  19  19  10  19  19  19  10  19  19  19  19  19  19  19  19  19  19  19  19  19  19  19  19  19  19  19  19  19  10  19  19  19  19  19  19  19  19  19  19  19  19  19  19  19  19  19  19  19  19  19  19  19  19  19  19  19  19  19  19  19  19  19  19  19  19  19  19  19  19  19  19  19  19  19  10  19  19  19  19  19  19  19  19  19  19  19  19  19  19  19  19  19  19  19  19  19  19  19  19  19  19  19  19  19  19  19  19  19  19  19  19  19  19  19  19  19  19  19  19  19  19  19  19  19  19  19  10  19  19  19  19  19  19  10  19  19  19  10  19  19  19  19  19  19  19  19  19  19  19  19  19  19  19  19  19  19  19  19  19  19  19

   9  18  18  18  18  18  18  18  18  18  18  18  18  18  18  18  18   9  18  18  18  18  18  18  18  18  18  18  18  18  18  18  18  18  18  18  18  18  18  18  18  18  18  18  18  18  18  18  18  18  18  18  18  18  18  18  18  18  18  18  18  18  18  18  18  18  18  18  18  18  18  18  18  18   9  18  18  18  18  18  18  18  18  18  18  18   9  18  18  18  18  18  18  18  18  18  18  18  18  18  18  18  18  18  18  18  18  18  18  18  18  18  18  18  18  18  18  18  18  18  18  18  18  18  18  18  18  18  18   9  18  18  18   9  18  18  18  18  18  18  18  18  18  18  18  18  18  18   9  18  18  18  18   9  18  18  18  18  18  18  18  18  18  18  18  18  18  18  18  18  18  18  18  18  18  18  18  18  18  18  18  18  18  18  18   9  18  18  18  18  18  18  18   9  18  18  18   9  18  18  18  18  18  18  18  18   9  18  18  18  18  18  18  18  18  18  18  18  18  18  18  18  18  18  18  18  18  18  18  18  18  18  18  18  18  18  18  18  18  18  18  18  18  18  18  18  18  18  18  18  18  18  18  18  18  18  18   9  18  18  18  18  18  18  18  18  18  18  18  18  18  18  18  18  18  18  18   9  18  18  18  18  18  18  18  18  18  18  18  18  18  18  18  18  18  18  18  18  18  18  18  18  18  18  18  18  18  18  18  18  18  18  18  18  18  18  18  18  18  18  18  18  18  18  18  18  18  18  18  18  18  18  18  18  18  18  18  18  18  18  18  18  18  18  18  18  18  18   9   9  18  18  18  18  18  18  18  18   9  18  18  18  18  18  18  18  18  18   9  18  18  18  18  18  18   9  18  18  18   9  18  18  18  18  18  18  18  18   9  18  18  18  18  18  18  18  18  18  18  18  18  18  18  18  18  18  18  18  18  18  18  18  18  18   9  18  18  18  18  18  18  18  18  18  18   9  18  18  18  18  18  18  18  18  18  18  18  18  18  18  18  18  18  18  18  18   9  18  18  18  18  18  18   9  18  18  18  18  18  18  18  18  18  18  18  18  18  18  18  18  18  18  18  18  18   9  18  18  18  18  18  18  18  18  18  18  18  18   9  18  18  18  18   9  18  18  18   9  18  18  18  18  18  18  18  18  18  18  18  18  18  18  18  18  18  18  18  18  18   9  18  18  18  18  18  18  18  18  18  18  18  18  18  18  18  18  18  18  18  18  18  18  18  18  18  18  18  18  18  18  18  18  18  18  18  18  18  18  18  18  18  18  18  18  18   9  18  18  18  18  18  18  18  18  18  18  18  18  18  18  18  18  18  18  18  18  18  18  18  18  18  18  18  18  18  18  18  18  18  18  18  18  18  18  18  18  18  18  18  18  18  18  18  18  18  18  18   9  18  18  18  18  18  18   9  18  18  18   9  18  18  18  18  18  18  18  18  18  18  18  18  18  18  18  18  18  18  18  18  18  18  18

  10  19  19  19  19  19  19  19  19  19  19  19  19  19  19  19  19  10  19  19  19  19  19  19  19  19  19  19  19  19  19  19  19  19  19  19  19  19  19  19  19  19  19  19  19  19  19  19  19  19  19  19  19  19  19  19  19  19  19  19  19  19  19  19  19  19  19  19  19  19  19  19  19  19  10  19  19  19  19  19  19  19  19  19  19  19  10  19  19  19  19  19  19  19  19  19  19  19  19  19  19  19  19  19  19  19  19  19  19  19  19  19  19  19  19  19  19  19  19  19  19  19  19  19  19  19  19  19  19  10  19  19  19  10  19  19  19  19  19  19  19  19  19  19  19  19  19  19  10  19  19  19  19  10  19  19  19  19  19  19  19  19  19  19  19  19  19  19  19  19  19  19  19  19  19  19  19  19  19  19  19  19  19  19  19  10  19  19  19  19  19  19  19  10  19  19  19  10  19  19  19  19  19  19  19  19  10  19  19  19  19  19  19  19  19  19  19  19  19  19  19  19  19  19  19  19  19  19  19  19  19  19  19  19  19  19  19  19  19  19  19  19  19  19  19  19  19  19  19  19  19  19  19  19  19  19  19  10  19  19  19  19  19  19  19  19  19  19  19  19  19  19  19  19  19  19  19  10  19  19  19  19  19  19  19  19  19  19  19  19  19  19  19  19  19  19  19  19  19  19  19  19  19  19  19  19  19  19  19  19  19  19  19  19  19  19  19  19  19  19  19  19  19  19  19  19  19  19  19  19  19  19  19  19  19  19  19  19  19  19  19  19  19  19  19  19  19  19  10  10  19  19  19  19  19  19  19  19  10  19  19  19  19  19  19  19  19  19  10  19  19  19  19  19  19  10  19  19  19  10  19  19  19  19  19  19  19  19  10  19  19  19  19  19  19  19  19  19  19  19  19  19  19  19  19  19  19  19  19  19  19  19  19  19  10  19  19  19  19  19  19  19  19  19  19  10  19  19  19  19  19  19  19  19  19  19  19  19  19  19  19  19  19  19  19  19  10  19  19  19  19  19  19  10  19  19  19  19  19  19  19  19  19  19  19  19  19  19  19  19  19  19  19  19  19  10  19  19  19  19  19  19  19  19  19  19  19  19  10  19  19  19  19  10  19  19  19  10  19  19  19  19  19  19  19  19  19  19  19  19  19  19  19  19  19  19  19  19  19  10  19  19  19  19  19  19  19  19  19  19  19  19  19  19  19  19  19  19  19  19  19  19  19  19  19  19  19  19  19  19  19  19  19  19  19  19  19  19  19  19  19  19  19  19  19  10  19  19  19  19  19  19  19  19  19  19  19  19  19  19  19  19  19  19  19  19  19  19  19  19  19  19  19  19  19  19  19  19  19  19  19  19  19  19  19  19  19  19  19  19  19  19  19  19  19  19  19  10  19  19  19  19  19  19  10  19  19  19  10  19  19  19  19  19  19  19  19  19  19  19  19  19  19  19  19  19  19  19  19  19  19  19

   9  17  17  17  17  17  17  17  17  17  17  17  17  17  17  17  17   9  17  17  17  17  17  17  17  17  17  17  17  17  17  17  17  17  17  17  17  17  17  17  17  17  17  17  17  17  17  17  17  17  17  17  17  17  17  17  17  17  17  17  17  17  17  17  17  17  17  17  17  17  17  17  17  17   9  17  17  17  17  17  17  17  17  17  17  17   9  17  17  17  17  17  17  17  17  17  17  17  17  17  17  17  17  17  17  17  17  17  17  17  17  17  17  17  17  17  17  17  17  17  17  17  17  17  17  17  17  17  17   9  17  17  17   9  17  17  17  17  17  17  17  17  17  17  17  17  17  17   9  17  17  17  17   9  17  17  17  17  17  17  17  17  17  17  17  17  17  17  17  17  17  17  17  17  17  17  17  17  17  17  17  17  17  17  17   9  17  17  17  17  17  17  17   9  17  17  17   9  17  17  17  17  17  17  17  17   9  17  17  17  17  17  17  17  17  17  17  17  17  17  17  17  17  17  17  17  17  17  17  17  17  17  17  17  17  17  17  17  17  17  17  17  17  17  17  17  17  17  17  17  17  17  17  17  17  17  17   9  17  17  17  17  17  17  17  17  17  17  17  17  17  17  17  17  17  17  17   9  17  17  17  17  17  17  17  17  17  17  17  17  17  17  17  17  17  17  17  17  17  17  17  17  17  17  17  17  17  17  17  17  17  17  17  17  17  17  17  17  17  17  17  17  17  17  17  17  17  17  17  17  17  17  17  17  17  17  17  17  17  17  17  17  17  17  17  17  17  17   9   9  17  17  17  17  17  17  17  17   9  17  17  17  17  17  17  17  17  17   9  17  17  17  17  17  17   9  17  17  17   9  17  17  17  17  17  17  17  17   9  17  17  17  17  17  17  17  17  17  17  17  17  17  17  17  17  17  17  17  17  17  17  17  17  17   9  17  17  17  17  17  17  17  17  17  17   9  17  17  17  17  17  17  17  17  17  17  17  17  17  17  17  17  17  17  17  17   9  17  17  17  17  17  17   9  17  17  17  17  17  17  17  17  17  17  17  17  17  17  17  17  17  17  17  17  17   9  17  17  17  17  17  17  17  17  17  17  17  17   9  17  17  17  17   9  17  17  17   9  17  17  17  17  17  17  17  17  17  17  17  17  17  17  17  17  17  17  17  17  17   9  17  17  17  17  17  17  17  17  17  17  17  17  17  17  17  17  17  17  17  17  17  17  17  17  17  17  17  17  17  17  17  17  17  17  17  17  17  17  17  17  17  17  17  17  17   9  17  17  17  17  17  17  17  17  17  17  17  17  17  17  17  17  17  17  17  17  17  17  17  17  17  17  17  17  17  17  17  17  17  17  17  17  17  17  17  17  17  17  17  17  17  17  17  17  17  17  17   9  17  17  17  17  17  17   9  17  17  17   9  17  17  17  17  17  17  17  17  17  17  17  17  17  17  17  17  17  17  17  17  17  17  17

************************************************************************
